# Node Net
 33   1
4834   1
 40   1
 20   1
1190   1
 35   2
  3   2
4833   2
1401   2
3431   2
2870   3
4870   3
4848   3
 46   3
 59   3
141   4
3290   4
3641   4
4761   4
  7   5
1960   5
4843   5
4690   5
4271   6
 63   6
4890   6
1471   6
1400   7
3501   7
 17   7
981   7
4885   8
4898   8
4411   8
 18   8
3781   9
4830   9
4859   9
4878  10
2521  10
4860  11
 42  11
1121  12
 70  12
